Maximize
  - 1.4966712709735 edge_0_1_0_0 - 2.5340624516455 edge_0_2_0_0
   - 0.046296727339366 edge_0_3_0_0 - 3.874478045879 edge_0_5_0_0
   - 1.044415190334 edge_0_6_0_0 - 0.8158369802025 edge_0_8_0_0
   + 0.0198826842293159 edge_1_2_0_0 + 0.0161815204069152 edge_1_3_0_0
   + 0.2402248514128173 edge_1_5_0_0 + 0.4479151366180967 edge_1_6_0_0
   + 0.0422786352522605 edge_1_7_0_0 + 0.2190082783714699 edge_1_8_0_0
   - 0.1060546600354268 edge_1_9_0_0 - 0.0291408736857077 edge_1_10_0_0
   + 0.1696236068408521 edge_1_15_0_0 - 0.2196504105587765 edge_1_16_0_0
   - 0.26665464295693 edge_1_22_0_0 + 0.9411765848704696 edge_1_27_0_0
   + 0.3642618116556212 edge_2_1_0_0 + 1.188058751832346 edge_2_3_0_0
   + 0.4399321990271539 edge_2_5_0_0 + 0.3365247666726918 edge_2_6_0_0
   - 0.1004827722747171 edge_2_7_0_0 + 0.0778377393776852 edge_2_8_0_0
   - 0.4098591703297983 edge_2_10_0_0 + 1.374720991101506 edge_3_1_0_0
   + 2.268761326915483 edge_3_2_0_0 + 2.53243239488561 edge_3_5_0_0
   + 3.029873350032442 edge_3_6_0_0 + 1.754544318674422 edge_3_7_0_0
   + 2.238337613182686 edge_3_8_0_0 + 0.2654687126935525 edge_3_9_0_0
   + 0.9905256430341451 edge_3_10_0_0 - 0.1012905169325277 edge_3_13_0_0
   + 2.212865566347113 edge_3_15_0_0 + 1.729630318836738 edge_3_16_0_0
   - 0.2811611304992575 edge_3_17_0_0 - 1.118589002613361 edge_3_18_0_0
   - 0.3897815438729948 edge_3_19_0_0 - 0.4846954581045693 edge_3_21_0_0
   + 0.6413669863951 edge_3_22_0_0 - 0.869928362549356 edge_3_23_0_0
   - 0.3066224740764532 edge_3_24_0_0 + 0.5674560005238428 edge_3_25_0_0
   - 1.370244081735587 edge_3_26_0_0 + 3.235237197984569 edge_3_27_0_0
   - 0.1003126322068399 edge_5_1_0_0 - 0.7463669285196201 edge_5_2_0_0
   - 0.8218428064555928 edge_5_3_0_0 + 0.1443934262173018 edge_5_6_0_0
   - 0.193264700365061 edge_5_7_0_0 - 0.4309640321531864 edge_5_8_0_0
   - 0.0398567210768859 edge_6_1_0_0 - 0.6180799152801104 edge_6_2_0_0
   - 0.5030954887221017 edge_6_3_0_0 + 0.2246776008779636 edge_6_5_0_0
   + 3.343840205321633 edge_6_7_0_0 + 2.368920311551909 edge_6_8_0_0
   + 0.4204637891520637 edge_6_9_0_0 + 1.778735128939022 edge_6_10_0_0
   + 0.0750101529564089 edge_6_13_0_0 + 1.798970319827157 edge_6_15_0_0
   + 1.698740138504074 edge_6_16_0_0 - 0.424654269618174 edge_6_17_0_0
   - 0.7536481211957047 edge_6_18_0_0 - 0.6181941365817438 edge_6_19_0_0
   + 0.3958139031867 edge_6_22_0_0 - 0.1500521271775298 edge_6_24_0_0
   + 0.0438648640666495 edge_6_25_0_0 - 1.230021928298561 edge_6_26_0_0
   + 2.967195609205506 edge_6_27_0_0 + 0.038423437288979 edge_7_1_0_0
   - 0.0998116119498135 edge_7_2_0_0 + 0.1488225949648221 edge_7_5_0_0
   + 0.3754827489086813 edge_7_6_0_0 + 0.6306896937167373 edge_7_8_0_0
   - 0.4795902271943878 edge_7_9_0_0 - 0.0485367753242116 edge_7_10_0_0
   - 0.00520406258679453 edge_7_15_0_0 + 0.1938786114415328 edge_8_1_0_0
   - 0.00550028949100874 edge_8_2_0_0 - 0.294139070699322 edge_8_3_0_0
   + 0.1675059091861018 edge_8_5_0_0 + 0.6092967488698119 edge_8_6_0_0
   + 1.704837547019202 edge_8_7_0_0 + 0.954289403866274 edge_8_9_0_0
   + 3.209582938905811 edge_8_10_0_0 + 0.309413409172565 edge_8_13_0_0
   + 2.211261139680121 edge_8_15_0_0 + 2.659688954472651 edge_8_16_0_0
   - 0.0769835965089381 edge_8_17_0_0 - 0.3946858450310171 edge_8_18_0_0
   - 0.2870337049269404 edge_8_19_0_0 - 0.3217513773387556 edge_8_21_0_0
   + 0.8780849023925 edge_8_22_0_0 - 0.6979843806734135 edge_8_23_0_0
   + 0.2597106656744622 edge_8_24_0_0 + 0.8980503753774077 edge_8_25_0_0
   - 0.8532383538910145 edge_8_26_0_0 + 2.332025825667874 edge_8_27_0_0
   - 0.5324663737450478 edge_9_7_0_0 - 0.2327784560477843 edge_9_13_0_0
   - 0.1850885521098985 edge_10_1_0_0 - 0.5893977963161315 edge_10_2_0_0
   + 0.0968061052786526 edge_10_3_0_0 - 0.4663078028022166 edge_10_5_0_0
   + 0.3513743898184126 edge_10_6_0_0 + 0.9064023344620843 edge_10_7_0_0
   + 0.5644457582172704 edge_10_8_0_0 + 3.54928505972599 edge_10_9_0_0
   + 0.0848586463163094 edge_10_13_0_0 + 1.349333182732259 edge_10_15_0_0
   + 0.8567514151516223 edge_10_16_0_0 + 0.2351122057628723 edge_10_17_0_0
   + 0.0937334502333237 edge_10_18_0_0 - 0.2404466008064322 edge_10_19_0_0
   - 0.4800013674451477 edge_10_21_0_0 + 0.5328324938086501 edge_10_22_0_0
   - 0.0729839987599813 edge_10_24_0_0 - 0.3162023046858852 edge_10_25_0_0
   + 2.337586516992099 edge_10_27_0_0 + 0.0298422099887835 edge_13_9_0_0
   + 0.0399916358588408 edge_13_10_0_0 + 0.0718726816818835 edge_13_15_0_0
   - 0.2576142088138865 edge_13_16_0_0 - 0.4603594369758245 edge_13_17_0_0
   - 0.3914171612587756 edge_13_18_0_0 - 1.225886142447058 edge_15_10_0_0
   - 0.1868693934073231 edge_15_13_0_0 + 0.4626628679488665 edge_15_16_0_0
   + 0.0877958912355051 edge_15_17_0_0 - 0.2224251674156272 edge_16_15_0_0
   - 0.3919362004280639 edge_17_18_0_0 - 0.4607420822532237 edge_17_19_0_0
   - 0.2979703229999188 edge_18_13_0_0 - 0.3828396651281582 edge_18_16_0_0
   + 0.00920152813588902 edge_18_17_0_0 + 0.1280674453997473 edge_18_19_0_0
   - 0.548103052481732 edge_18_21_0_0 - 0.13955649202885 edge_18_22_0_0
   - 0.1655823755636986 edge_18_23_0_0 - 0.4406303330762244 edge_18_24_0_0
   - 0.6241529568258527 edge_19_17_0_0 - 0.2317489667032603 edge_19_18_0_0
   + 0.02279591883195 edge_19_21_0_0 + 0.2097958370766699 edge_21_18_0_0
   + 0.6045867187822479 edge_21_19_0_0 + 0.8889464701128 edge_21_22_0_0
   - 0.1363500339824275 edge_21_23_0_0 - 0.1133464954552672 edge_21_24_0_0
   + 0.2570102589841101 edge_21_25_0_0 - 0.42745244815959 edge_22_1_0_0
   - 0.7553690576833499 edge_22_2_0_0 - 0.75492164457794 edge_22_3_0_0
   - 0.13754585579805 edge_22_5_0_0 - 0.4755051194823 edge_22_6_0_0
   - 0.2569769367983999 edge_22_7_0_0 - 0.51733535333 edge_22_8_0_0
   - 0.26919922293872 edge_22_9_0_0 + 0.051268851294545 edge_22_10_0_0
   + 0.23145594970754 edge_22_13_0_0 + 0.319890836008 edge_22_15_0_0
   + 0.46751833224616 edge_22_16_0_0 + 1.3533333455537 edge_22_17_0_0
   + 1.6944484489673 edge_22_18_0_0 + 2.1446099490036 edge_22_19_0_0
   + 2.5604319649248 edge_22_21_0_0 + 0.64808530654798 edge_22_23_0_0
   + 1.4339902531524 edge_22_24_0_0 + 1.2717085067414 edge_22_25_0_0
   + 0.7950725732749799 edge_22_26_0_0 + 1.9388689530102 edge_22_27_0_0
   + 0.0889376083272813 edge_23_21_0_0 - 0.033220264454279 edge_23_22_0_0
   + 0.7374646273492144 edge_23_24_0_0 + 0.1573635526207585 edge_23_25_0_0
   - 0.2224205299124883 edge_23_26_0_0 - 0.4157111225097777 edge_24_3_0_0
   + 0.1138382761795921 edge_24_13_0_0 + 0.6700892516311902 edge_24_19_0_0
   + 0.5516882061658056 edge_24_21_0_0 + 0.63436299318435 edge_24_22_0_0
   + 2.664574711499708 edge_24_23_0_0 + 2.649674756478579 edge_24_25_0_0
   + 2.501580627019952 edge_24_26_0_0 + 2.210232130820105 edge_24_27_0_0
   - 0.7263091569399305 edge_25_23_0_0 - 0.2537232452657616 edge_25_24_0_0
   + 0.3457580328132495 edge_25_26_0_0 - 0.6721664029552592 edge_26_23_0_0
   - 0.1015916006716399 edge_26_25_0_0 + 0.6746536658170337 edge_26_27_0_0
   - 0.7622033782036335 edge_27_26_0_0
Subject To
 one_parent_1: edge_0_1_0_0 + edge_2_1_0_0 + edge_3_1_0_0 + edge_5_1_0_0
   + edge_6_1_0_0 + edge_7_1_0_0 + edge_8_1_0_0 + edge_10_1_0_0
   + edge_22_1_0_0 = 1
 consume_one_flow_unit_1: flow_0_1_0_0 - flow_1_2_0_0 - flow_1_3_0_0
   - flow_1_5_0_0 - flow_1_6_0_0 - flow_1_7_0_0 - flow_1_8_0_0
   - flow_1_9_0_0 - flow_1_10_0_0 - flow_1_15_0_0 - flow_1_16_0_0
   - flow_1_22_0_0 - flow_1_27_0_0 + flow_2_1_0_0 + flow_3_1_0_0
   + flow_5_1_0_0 + flow_6_1_0_0 + flow_7_1_0_0 + flow_8_1_0_0
   + flow_10_1_0_0 + flow_22_1_0_0 = 1
 one_parent_2: edge_0_2_0_0 + edge_1_2_0_0 + edge_3_2_0_0 + edge_5_2_0_0
   + edge_6_2_0_0 + edge_7_2_0_0 + edge_8_2_0_0 + edge_10_2_0_0
   + edge_22_2_0_0 = 1
 consume_one_flow_unit_2: flow_0_2_0_0 + flow_1_2_0_0 - flow_2_1_0_0
   - flow_2_3_0_0 - flow_2_5_0_0 - flow_2_6_0_0 - flow_2_7_0_0
   - flow_2_8_0_0 - flow_2_10_0_0 + flow_3_2_0_0 + flow_5_2_0_0
   + flow_6_2_0_0 + flow_7_2_0_0 + flow_8_2_0_0 + flow_10_2_0_0
   + flow_22_2_0_0 = 1
 one_parent_3: edge_0_3_0_0 + edge_1_3_0_0 + edge_2_3_0_0 + edge_5_3_0_0
   + edge_6_3_0_0 + edge_8_3_0_0 + edge_10_3_0_0 + edge_22_3_0_0
   + edge_24_3_0_0 = 1
 consume_one_flow_unit_3: flow_0_3_0_0 + flow_1_3_0_0 + flow_2_3_0_0
   - flow_3_1_0_0 - flow_3_2_0_0 - flow_3_5_0_0 - flow_3_6_0_0
   - flow_3_7_0_0 - flow_3_8_0_0 - flow_3_9_0_0 - flow_3_10_0_0
   - flow_3_13_0_0 - flow_3_15_0_0 - flow_3_16_0_0 - flow_3_17_0_0
   - flow_3_18_0_0 - flow_3_19_0_0 - flow_3_21_0_0 - flow_3_22_0_0
   - flow_3_23_0_0 - flow_3_24_0_0 - flow_3_25_0_0 - flow_3_26_0_0
   - flow_3_27_0_0 + flow_5_3_0_0 + flow_6_3_0_0 + flow_8_3_0_0
   + flow_10_3_0_0 + flow_22_3_0_0 + flow_24_3_0_0 = 1
 one_parent_4: = 1
 consume_one_flow_unit_4: = 1
 one_parent_5: edge_0_5_0_0 + edge_1_5_0_0 + edge_2_5_0_0 + edge_3_5_0_0
   + edge_6_5_0_0 + edge_7_5_0_0 + edge_8_5_0_0 + edge_10_5_0_0
   + edge_22_5_0_0 = 1
 consume_one_flow_unit_5: flow_0_5_0_0 + flow_1_5_0_0 + flow_2_5_0_0
   + flow_3_5_0_0 - flow_5_1_0_0 - flow_5_2_0_0 - flow_5_3_0_0
   - flow_5_6_0_0 - flow_5_7_0_0 - flow_5_8_0_0 + flow_6_5_0_0
   + flow_7_5_0_0 + flow_8_5_0_0 + flow_10_5_0_0 + flow_22_5_0_0 = 1
 one_parent_6: edge_0_6_0_0 + edge_1_6_0_0 + edge_2_6_0_0 + edge_3_6_0_0
   + edge_5_6_0_0 + edge_7_6_0_0 + edge_8_6_0_0 + edge_10_6_0_0
   + edge_22_6_0_0 = 1
 consume_one_flow_unit_6: flow_0_6_0_0 + flow_1_6_0_0 + flow_2_6_0_0
   + flow_3_6_0_0 + flow_5_6_0_0 - flow_6_1_0_0 - flow_6_2_0_0
   - flow_6_3_0_0 - flow_6_5_0_0 - flow_6_7_0_0 - flow_6_8_0_0
   - flow_6_9_0_0 - flow_6_10_0_0 - flow_6_13_0_0 - flow_6_15_0_0
   - flow_6_16_0_0 - flow_6_17_0_0 - flow_6_18_0_0 - flow_6_19_0_0
   - flow_6_22_0_0 - flow_6_24_0_0 - flow_6_25_0_0 - flow_6_26_0_0
   - flow_6_27_0_0 + flow_7_6_0_0 + flow_8_6_0_0 + flow_10_6_0_0
   + flow_22_6_0_0 = 1
 one_parent_7: edge_1_7_0_0 + edge_2_7_0_0 + edge_3_7_0_0 + edge_5_7_0_0
   + edge_6_7_0_0 + edge_8_7_0_0 + edge_9_7_0_0 + edge_10_7_0_0
   + edge_22_7_0_0 = 1
 consume_one_flow_unit_7: flow_1_7_0_0 + flow_2_7_0_0 + flow_3_7_0_0
   + flow_5_7_0_0 + flow_6_7_0_0 - flow_7_1_0_0 - flow_7_2_0_0
   - flow_7_5_0_0 - flow_7_6_0_0 - flow_7_8_0_0 - flow_7_9_0_0
   - flow_7_10_0_0 - flow_7_15_0_0 + flow_8_7_0_0 + flow_9_7_0_0
   + flow_10_7_0_0 + flow_22_7_0_0 = 1
 one_parent_8: edge_0_8_0_0 + edge_1_8_0_0 + edge_2_8_0_0 + edge_3_8_0_0
   + edge_5_8_0_0 + edge_6_8_0_0 + edge_7_8_0_0 + edge_10_8_0_0
   + edge_22_8_0_0 = 1
 consume_one_flow_unit_8: flow_0_8_0_0 + flow_1_8_0_0 + flow_2_8_0_0
   + flow_3_8_0_0 + flow_5_8_0_0 + flow_6_8_0_0 + flow_7_8_0_0
   - flow_8_1_0_0 - flow_8_2_0_0 - flow_8_3_0_0 - flow_8_5_0_0
   - flow_8_6_0_0 - flow_8_7_0_0 - flow_8_9_0_0 - flow_8_10_0_0
   - flow_8_13_0_0 - flow_8_15_0_0 - flow_8_16_0_0 - flow_8_17_0_0
   - flow_8_18_0_0 - flow_8_19_0_0 - flow_8_21_0_0 - flow_8_22_0_0
   - flow_8_23_0_0 - flow_8_24_0_0 - flow_8_25_0_0 - flow_8_26_0_0
   - flow_8_27_0_0 + flow_10_8_0_0 + flow_22_8_0_0 = 1
 one_parent_9: edge_1_9_0_0 + edge_3_9_0_0 + edge_6_9_0_0 + edge_7_9_0_0
   + edge_8_9_0_0 + edge_10_9_0_0 + edge_13_9_0_0 + edge_22_9_0_0 = 1
 consume_one_flow_unit_9: flow_1_9_0_0 + flow_3_9_0_0 + flow_6_9_0_0
   + flow_7_9_0_0 + flow_8_9_0_0 - flow_9_7_0_0 - flow_9_13_0_0
   + flow_10_9_0_0 + flow_13_9_0_0 + flow_22_9_0_0 = 1
 one_parent_10: edge_1_10_0_0 + edge_2_10_0_0 + edge_3_10_0_0
   + edge_6_10_0_0 + edge_7_10_0_0 + edge_8_10_0_0 + edge_13_10_0_0
   + edge_15_10_0_0 + edge_22_10_0_0 = 1
 consume_one_flow_unit_10: flow_1_10_0_0 + flow_2_10_0_0 + flow_3_10_0_0
   + flow_6_10_0_0 + flow_7_10_0_0 + flow_8_10_0_0 - flow_10_1_0_0
   - flow_10_2_0_0 - flow_10_3_0_0 - flow_10_5_0_0 - flow_10_6_0_0
   - flow_10_7_0_0 - flow_10_8_0_0 - flow_10_9_0_0 - flow_10_13_0_0
   - flow_10_15_0_0 - flow_10_16_0_0 - flow_10_17_0_0 - flow_10_18_0_0
   - flow_10_19_0_0 - flow_10_21_0_0 - flow_10_22_0_0 - flow_10_24_0_0
   - flow_10_25_0_0 - flow_10_27_0_0 + flow_13_10_0_0 + flow_15_10_0_0
   + flow_22_10_0_0 = 1
 one_parent_11: = 1
 consume_one_flow_unit_11: = 1
 one_parent_12: = 1
 consume_one_flow_unit_12: = 1
 one_parent_13: edge_3_13_0_0 + edge_6_13_0_0 + edge_8_13_0_0
   + edge_9_13_0_0 + edge_10_13_0_0 + edge_15_13_0_0 + edge_18_13_0_0
   + edge_22_13_0_0 + edge_24_13_0_0 = 1
 consume_one_flow_unit_13: flow_3_13_0_0 + flow_6_13_0_0 + flow_8_13_0_0
   + flow_9_13_0_0 + flow_10_13_0_0 - flow_13_9_0_0 - flow_13_10_0_0
   - flow_13_15_0_0 - flow_13_16_0_0 - flow_13_17_0_0 - flow_13_18_0_0
   + flow_15_13_0_0 + flow_18_13_0_0 + flow_22_13_0_0 + flow_24_13_0_0 = 1
 one_parent_14: = 1
 consume_one_flow_unit_14: = 1
 one_parent_15: edge_1_15_0_0 + edge_3_15_0_0 + edge_6_15_0_0
   + edge_7_15_0_0 + edge_8_15_0_0 + edge_10_15_0_0 + edge_13_15_0_0
   + edge_16_15_0_0 + edge_22_15_0_0 = 1
 consume_one_flow_unit_15: flow_1_15_0_0 + flow_3_15_0_0 + flow_6_15_0_0
   + flow_7_15_0_0 + flow_8_15_0_0 + flow_10_15_0_0 + flow_13_15_0_0
   - flow_15_10_0_0 - flow_15_13_0_0 - flow_15_16_0_0 - flow_15_17_0_0
   + flow_16_15_0_0 + flow_22_15_0_0 = 1
 one_parent_16: edge_1_16_0_0 + edge_3_16_0_0 + edge_6_16_0_0
   + edge_8_16_0_0 + edge_10_16_0_0 + edge_13_16_0_0 + edge_15_16_0_0
   + edge_18_16_0_0 + edge_22_16_0_0 = 1
 consume_one_flow_unit_16: flow_1_16_0_0 + flow_3_16_0_0 + flow_6_16_0_0
   + flow_8_16_0_0 + flow_10_16_0_0 + flow_13_16_0_0 + flow_15_16_0_0
   - flow_16_15_0_0 + flow_18_16_0_0 + flow_22_16_0_0 = 1
 one_parent_17: edge_3_17_0_0 + edge_6_17_0_0 + edge_8_17_0_0
   + edge_10_17_0_0 + edge_13_17_0_0 + edge_15_17_0_0 + edge_18_17_0_0
   + edge_19_17_0_0 + edge_22_17_0_0 = 1
 consume_one_flow_unit_17: flow_3_17_0_0 + flow_6_17_0_0 + flow_8_17_0_0
   + flow_10_17_0_0 + flow_13_17_0_0 + flow_15_17_0_0 - flow_17_18_0_0
   - flow_17_19_0_0 + flow_18_17_0_0 + flow_19_17_0_0 + flow_22_17_0_0 = 1
 one_parent_18: edge_3_18_0_0 + edge_6_18_0_0 + edge_8_18_0_0
   + edge_10_18_0_0 + edge_13_18_0_0 + edge_17_18_0_0 + edge_19_18_0_0
   + edge_21_18_0_0 + edge_22_18_0_0 = 1
 consume_one_flow_unit_18: flow_3_18_0_0 + flow_6_18_0_0 + flow_8_18_0_0
   + flow_10_18_0_0 + flow_13_18_0_0 + flow_17_18_0_0 - flow_18_13_0_0
   - flow_18_16_0_0 - flow_18_17_0_0 - flow_18_19_0_0 - flow_18_21_0_0
   - flow_18_22_0_0 - flow_18_23_0_0 - flow_18_24_0_0 + flow_19_18_0_0
   + flow_21_18_0_0 + flow_22_18_0_0 = 1
 one_parent_19: edge_3_19_0_0 + edge_6_19_0_0 + edge_8_19_0_0
   + edge_10_19_0_0 + edge_17_19_0_0 + edge_18_19_0_0 + edge_21_19_0_0
   + edge_22_19_0_0 + edge_24_19_0_0 = 1
 consume_one_flow_unit_19: flow_3_19_0_0 + flow_6_19_0_0 + flow_8_19_0_0
   + flow_10_19_0_0 + flow_17_19_0_0 + flow_18_19_0_0 - flow_19_17_0_0
   - flow_19_18_0_0 - flow_19_21_0_0 + flow_21_19_0_0 + flow_22_19_0_0
   + flow_24_19_0_0 = 1
 one_parent_20: = 1
 consume_one_flow_unit_20: = 1
 one_parent_21: edge_3_21_0_0 + edge_8_21_0_0 + edge_10_21_0_0
   + edge_18_21_0_0 + edge_19_21_0_0 + edge_22_21_0_0 + edge_23_21_0_0
   + edge_24_21_0_0 = 1
 consume_one_flow_unit_21: flow_3_21_0_0 + flow_8_21_0_0 + flow_10_21_0_0
   + flow_18_21_0_0 + flow_19_21_0_0 - flow_21_18_0_0 - flow_21_19_0_0
   - flow_21_22_0_0 - flow_21_23_0_0 - flow_21_24_0_0 - flow_21_25_0_0
   + flow_22_21_0_0 + flow_23_21_0_0 + flow_24_21_0_0 = 1
 one_parent_22: edge_1_22_0_0 + edge_3_22_0_0 + edge_6_22_0_0
   + edge_8_22_0_0 + edge_10_22_0_0 + edge_18_22_0_0 + edge_21_22_0_0
   + edge_23_22_0_0 + edge_24_22_0_0 = 1
 consume_one_flow_unit_22: flow_1_22_0_0 + flow_3_22_0_0 + flow_6_22_0_0
   + flow_8_22_0_0 + flow_10_22_0_0 + flow_18_22_0_0 + flow_21_22_0_0
   - flow_22_1_0_0 - flow_22_2_0_0 - flow_22_3_0_0 - flow_22_5_0_0
   - flow_22_6_0_0 - flow_22_7_0_0 - flow_22_8_0_0 - flow_22_9_0_0
   - flow_22_10_0_0 - flow_22_13_0_0 - flow_22_15_0_0 - flow_22_16_0_0
   - flow_22_17_0_0 - flow_22_18_0_0 - flow_22_19_0_0 - flow_22_21_0_0
   - flow_22_23_0_0 - flow_22_24_0_0 - flow_22_25_0_0 - flow_22_26_0_0
   - flow_22_27_0_0 + flow_23_22_0_0 + flow_24_22_0_0 = 1
 one_parent_23: edge_3_23_0_0 + edge_8_23_0_0 + edge_18_23_0_0
   + edge_21_23_0_0 + edge_22_23_0_0 + edge_24_23_0_0 + edge_25_23_0_0
   + edge_26_23_0_0 = 1
 consume_one_flow_unit_23: flow_3_23_0_0 + flow_8_23_0_0 + flow_18_23_0_0
   + flow_21_23_0_0 + flow_22_23_0_0 - flow_23_21_0_0 - flow_23_22_0_0
   - flow_23_24_0_0 - flow_23_25_0_0 - flow_23_26_0_0 + flow_24_23_0_0
   + flow_25_23_0_0 + flow_26_23_0_0 = 1
 one_parent_24: edge_3_24_0_0 + edge_6_24_0_0 + edge_8_24_0_0
   + edge_10_24_0_0 + edge_18_24_0_0 + edge_21_24_0_0 + edge_22_24_0_0
   + edge_23_24_0_0 + edge_25_24_0_0 = 1
 consume_one_flow_unit_24: flow_3_24_0_0 + flow_6_24_0_0 + flow_8_24_0_0
   + flow_10_24_0_0 + flow_18_24_0_0 + flow_21_24_0_0 + flow_22_24_0_0
   + flow_23_24_0_0 - flow_24_3_0_0 - flow_24_13_0_0 - flow_24_19_0_0
   - flow_24_21_0_0 - flow_24_22_0_0 - flow_24_23_0_0 - flow_24_25_0_0
   - flow_24_26_0_0 - flow_24_27_0_0 + flow_25_24_0_0 = 1
 one_parent_25: edge_3_25_0_0 + edge_6_25_0_0 + edge_8_25_0_0
   + edge_10_25_0_0 + edge_21_25_0_0 + edge_22_25_0_0 + edge_23_25_0_0
   + edge_24_25_0_0 + edge_26_25_0_0 = 1
 consume_one_flow_unit_25: flow_3_25_0_0 + flow_6_25_0_0 + flow_8_25_0_0
   + flow_10_25_0_0 + flow_21_25_0_0 + flow_22_25_0_0 + flow_23_25_0_0
   + flow_24_25_0_0 - flow_25_23_0_0 - flow_25_24_0_0 - flow_25_26_0_0
   + flow_26_25_0_0 = 1
 one_parent_26: edge_3_26_0_0 + edge_6_26_0_0 + edge_8_26_0_0
   + edge_22_26_0_0 + edge_23_26_0_0 + edge_24_26_0_0 + edge_25_26_0_0
   + edge_27_26_0_0 = 1
 consume_one_flow_unit_26: flow_3_26_0_0 + flow_6_26_0_0 + flow_8_26_0_0
   + flow_22_26_0_0 + flow_23_26_0_0 + flow_24_26_0_0 + flow_25_26_0_0
   - flow_26_23_0_0 - flow_26_25_0_0 - flow_26_27_0_0 + flow_27_26_0_0 = 1
 one_parent_27: edge_1_27_0_0 + edge_3_27_0_0 + edge_6_27_0_0
   + edge_8_27_0_0 + edge_10_27_0_0 + edge_22_27_0_0 + edge_24_27_0_0
   + edge_26_27_0_0 = 1
 consume_one_flow_unit_27: flow_1_27_0_0 + flow_3_27_0_0 + flow_6_27_0_0
   + flow_8_27_0_0 + flow_10_27_0_0 + flow_22_27_0_0 + flow_24_27_0_0
   + flow_26_27_0_0 - flow_27_26_0_0 = 1
 root_flow: flow_0_1_0_0 + flow_0_2_0_0 + flow_0_3_0_0 + flow_0_5_0_0
   + flow_0_6_0_0 + flow_0_8_0_0 = 27
 inactive_no_flow_0_1_0_0: flow_0_1_0_0 - 1000 edge_0_1_0_0 <= 0
 inactive_no_flow_0_2_0_0: flow_0_2_0_0 - 1000 edge_0_2_0_0 <= 0
 inactive_no_flow_0_3_0_0: flow_0_3_0_0 - 1000 edge_0_3_0_0 <= 0
 inactive_no_flow_0_5_0_0: flow_0_5_0_0 - 1000 edge_0_5_0_0 <= 0
 inactive_no_flow_0_6_0_0: flow_0_6_0_0 - 1000 edge_0_6_0_0 <= 0
 inactive_no_flow_0_8_0_0: flow_0_8_0_0 - 1000 edge_0_8_0_0 <= 0
 inactive_no_flow_1_2_0_0: flow_1_2_0_0 - 1000 edge_1_2_0_0 <= 0
 inactive_no_flow_1_3_0_0: flow_1_3_0_0 - 1000 edge_1_3_0_0 <= 0
 inactive_no_flow_1_5_0_0: flow_1_5_0_0 - 1000 edge_1_5_0_0 <= 0
 inactive_no_flow_1_6_0_0: flow_1_6_0_0 - 1000 edge_1_6_0_0 <= 0
 inactive_no_flow_1_7_0_0: flow_1_7_0_0 - 1000 edge_1_7_0_0 <= 0
 inactive_no_flow_1_8_0_0: flow_1_8_0_0 - 1000 edge_1_8_0_0 <= 0
 inactive_no_flow_1_9_0_0: flow_1_9_0_0 - 1000 edge_1_9_0_0 <= 0
 inactive_no_flow_1_10_0_0: flow_1_10_0_0 - 1000 edge_1_10_0_0 <= 0
 inactive_no_flow_1_15_0_0: flow_1_15_0_0 - 1000 edge_1_15_0_0 <= 0
 inactive_no_flow_1_16_0_0: flow_1_16_0_0 - 1000 edge_1_16_0_0 <= 0
 inactive_no_flow_1_22_0_0: flow_1_22_0_0 - 1000 edge_1_22_0_0 <= 0
 inactive_no_flow_1_27_0_0: flow_1_27_0_0 - 1000 edge_1_27_0_0 <= 0
 inactive_no_flow_2_1_0_0: flow_2_1_0_0 - 1000 edge_2_1_0_0 <= 0
 inactive_no_flow_2_3_0_0: flow_2_3_0_0 - 1000 edge_2_3_0_0 <= 0
 inactive_no_flow_2_5_0_0: flow_2_5_0_0 - 1000 edge_2_5_0_0 <= 0
 inactive_no_flow_2_6_0_0: flow_2_6_0_0 - 1000 edge_2_6_0_0 <= 0
 inactive_no_flow_2_7_0_0: flow_2_7_0_0 - 1000 edge_2_7_0_0 <= 0
 inactive_no_flow_2_8_0_0: flow_2_8_0_0 - 1000 edge_2_8_0_0 <= 0
 inactive_no_flow_2_10_0_0: flow_2_10_0_0 - 1000 edge_2_10_0_0 <= 0
 inactive_no_flow_3_1_0_0: flow_3_1_0_0 - 1000 edge_3_1_0_0 <= 0
 inactive_no_flow_3_2_0_0: flow_3_2_0_0 - 1000 edge_3_2_0_0 <= 0
 inactive_no_flow_3_5_0_0: flow_3_5_0_0 - 1000 edge_3_5_0_0 <= 0
 inactive_no_flow_3_6_0_0: flow_3_6_0_0 - 1000 edge_3_6_0_0 <= 0
 inactive_no_flow_3_7_0_0: flow_3_7_0_0 - 1000 edge_3_7_0_0 <= 0
 inactive_no_flow_3_8_0_0: flow_3_8_0_0 - 1000 edge_3_8_0_0 <= 0
 inactive_no_flow_3_9_0_0: flow_3_9_0_0 - 1000 edge_3_9_0_0 <= 0
 inactive_no_flow_3_10_0_0: flow_3_10_0_0 - 1000 edge_3_10_0_0 <= 0
 inactive_no_flow_3_13_0_0: flow_3_13_0_0 - 1000 edge_3_13_0_0 <= 0
 inactive_no_flow_3_15_0_0: flow_3_15_0_0 - 1000 edge_3_15_0_0 <= 0
 inactive_no_flow_3_16_0_0: flow_3_16_0_0 - 1000 edge_3_16_0_0 <= 0
 inactive_no_flow_3_17_0_0: flow_3_17_0_0 - 1000 edge_3_17_0_0 <= 0
 inactive_no_flow_3_18_0_0: flow_3_18_0_0 - 1000 edge_3_18_0_0 <= 0
 inactive_no_flow_3_19_0_0: flow_3_19_0_0 - 1000 edge_3_19_0_0 <= 0
 inactive_no_flow_3_21_0_0: flow_3_21_0_0 - 1000 edge_3_21_0_0 <= 0
 inactive_no_flow_3_22_0_0: flow_3_22_0_0 - 1000 edge_3_22_0_0 <= 0
 inactive_no_flow_3_23_0_0: flow_3_23_0_0 - 1000 edge_3_23_0_0 <= 0
 inactive_no_flow_3_24_0_0: flow_3_24_0_0 - 1000 edge_3_24_0_0 <= 0
 inactive_no_flow_3_25_0_0: flow_3_25_0_0 - 1000 edge_3_25_0_0 <= 0
 inactive_no_flow_3_26_0_0: flow_3_26_0_0 - 1000 edge_3_26_0_0 <= 0
 inactive_no_flow_3_27_0_0: flow_3_27_0_0 - 1000 edge_3_27_0_0 <= 0
 inactive_no_flow_5_1_0_0: flow_5_1_0_0 - 1000 edge_5_1_0_0 <= 0
 inactive_no_flow_5_2_0_0: flow_5_2_0_0 - 1000 edge_5_2_0_0 <= 0
 inactive_no_flow_5_3_0_0: flow_5_3_0_0 - 1000 edge_5_3_0_0 <= 0
 inactive_no_flow_5_6_0_0: flow_5_6_0_0 - 1000 edge_5_6_0_0 <= 0
 inactive_no_flow_5_7_0_0: flow_5_7_0_0 - 1000 edge_5_7_0_0 <= 0
 inactive_no_flow_5_8_0_0: flow_5_8_0_0 - 1000 edge_5_8_0_0 <= 0
 inactive_no_flow_6_1_0_0: flow_6_1_0_0 - 1000 edge_6_1_0_0 <= 0
 inactive_no_flow_6_2_0_0: flow_6_2_0_0 - 1000 edge_6_2_0_0 <= 0
 inactive_no_flow_6_3_0_0: flow_6_3_0_0 - 1000 edge_6_3_0_0 <= 0
 inactive_no_flow_6_5_0_0: flow_6_5_0_0 - 1000 edge_6_5_0_0 <= 0
 inactive_no_flow_6_7_0_0: flow_6_7_0_0 - 1000 edge_6_7_0_0 <= 0
 inactive_no_flow_6_8_0_0: flow_6_8_0_0 - 1000 edge_6_8_0_0 <= 0
 inactive_no_flow_6_9_0_0: flow_6_9_0_0 - 1000 edge_6_9_0_0 <= 0
 inactive_no_flow_6_10_0_0: flow_6_10_0_0 - 1000 edge_6_10_0_0 <= 0
 inactive_no_flow_6_13_0_0: flow_6_13_0_0 - 1000 edge_6_13_0_0 <= 0
 inactive_no_flow_6_15_0_0: flow_6_15_0_0 - 1000 edge_6_15_0_0 <= 0
 inactive_no_flow_6_16_0_0: flow_6_16_0_0 - 1000 edge_6_16_0_0 <= 0
 inactive_no_flow_6_17_0_0: flow_6_17_0_0 - 1000 edge_6_17_0_0 <= 0
 inactive_no_flow_6_18_0_0: flow_6_18_0_0 - 1000 edge_6_18_0_0 <= 0
 inactive_no_flow_6_19_0_0: flow_6_19_0_0 - 1000 edge_6_19_0_0 <= 0
 inactive_no_flow_6_22_0_0: flow_6_22_0_0 - 1000 edge_6_22_0_0 <= 0
 inactive_no_flow_6_24_0_0: flow_6_24_0_0 - 1000 edge_6_24_0_0 <= 0
 inactive_no_flow_6_25_0_0: flow_6_25_0_0 - 1000 edge_6_25_0_0 <= 0
 inactive_no_flow_6_26_0_0: flow_6_26_0_0 - 1000 edge_6_26_0_0 <= 0
 inactive_no_flow_6_27_0_0: flow_6_27_0_0 - 1000 edge_6_27_0_0 <= 0
 inactive_no_flow_7_1_0_0: flow_7_1_0_0 - 1000 edge_7_1_0_0 <= 0
 inactive_no_flow_7_2_0_0: flow_7_2_0_0 - 1000 edge_7_2_0_0 <= 0
 inactive_no_flow_7_5_0_0: flow_7_5_0_0 - 1000 edge_7_5_0_0 <= 0
 inactive_no_flow_7_6_0_0: flow_7_6_0_0 - 1000 edge_7_6_0_0 <= 0
 inactive_no_flow_7_8_0_0: flow_7_8_0_0 - 1000 edge_7_8_0_0 <= 0
 inactive_no_flow_7_9_0_0: flow_7_9_0_0 - 1000 edge_7_9_0_0 <= 0
 inactive_no_flow_7_10_0_0: flow_7_10_0_0 - 1000 edge_7_10_0_0 <= 0
 inactive_no_flow_7_15_0_0: flow_7_15_0_0 - 1000 edge_7_15_0_0 <= 0
 inactive_no_flow_8_1_0_0: flow_8_1_0_0 - 1000 edge_8_1_0_0 <= 0
 inactive_no_flow_8_2_0_0: flow_8_2_0_0 - 1000 edge_8_2_0_0 <= 0
 inactive_no_flow_8_3_0_0: flow_8_3_0_0 - 1000 edge_8_3_0_0 <= 0
 inactive_no_flow_8_5_0_0: flow_8_5_0_0 - 1000 edge_8_5_0_0 <= 0
 inactive_no_flow_8_6_0_0: flow_8_6_0_0 - 1000 edge_8_6_0_0 <= 0
 inactive_no_flow_8_7_0_0: flow_8_7_0_0 - 1000 edge_8_7_0_0 <= 0
 inactive_no_flow_8_9_0_0: flow_8_9_0_0 - 1000 edge_8_9_0_0 <= 0
 inactive_no_flow_8_10_0_0: flow_8_10_0_0 - 1000 edge_8_10_0_0 <= 0
 inactive_no_flow_8_13_0_0: flow_8_13_0_0 - 1000 edge_8_13_0_0 <= 0
 inactive_no_flow_8_15_0_0: flow_8_15_0_0 - 1000 edge_8_15_0_0 <= 0
 inactive_no_flow_8_16_0_0: flow_8_16_0_0 - 1000 edge_8_16_0_0 <= 0
 inactive_no_flow_8_17_0_0: flow_8_17_0_0 - 1000 edge_8_17_0_0 <= 0
 inactive_no_flow_8_18_0_0: flow_8_18_0_0 - 1000 edge_8_18_0_0 <= 0
 inactive_no_flow_8_19_0_0: flow_8_19_0_0 - 1000 edge_8_19_0_0 <= 0
 inactive_no_flow_8_21_0_0: flow_8_21_0_0 - 1000 edge_8_21_0_0 <= 0
 inactive_no_flow_8_22_0_0: flow_8_22_0_0 - 1000 edge_8_22_0_0 <= 0
 inactive_no_flow_8_23_0_0: flow_8_23_0_0 - 1000 edge_8_23_0_0 <= 0
 inactive_no_flow_8_24_0_0: flow_8_24_0_0 - 1000 edge_8_24_0_0 <= 0
 inactive_no_flow_8_25_0_0: flow_8_25_0_0 - 1000 edge_8_25_0_0 <= 0
 inactive_no_flow_8_26_0_0: flow_8_26_0_0 - 1000 edge_8_26_0_0 <= 0
 inactive_no_flow_8_27_0_0: flow_8_27_0_0 - 1000 edge_8_27_0_0 <= 0
 inactive_no_flow_9_7_0_0: flow_9_7_0_0 - 1000 edge_9_7_0_0 <= 0
 inactive_no_flow_9_13_0_0: flow_9_13_0_0 - 1000 edge_9_13_0_0 <= 0
 inactive_no_flow_10_1_0_0: flow_10_1_0_0 - 1000 edge_10_1_0_0 <= 0
 inactive_no_flow_10_2_0_0: flow_10_2_0_0 - 1000 edge_10_2_0_0 <= 0
 inactive_no_flow_10_3_0_0: flow_10_3_0_0 - 1000 edge_10_3_0_0 <= 0
 inactive_no_flow_10_5_0_0: flow_10_5_0_0 - 1000 edge_10_5_0_0 <= 0
 inactive_no_flow_10_6_0_0: flow_10_6_0_0 - 1000 edge_10_6_0_0 <= 0
 inactive_no_flow_10_7_0_0: flow_10_7_0_0 - 1000 edge_10_7_0_0 <= 0
 inactive_no_flow_10_8_0_0: flow_10_8_0_0 - 1000 edge_10_8_0_0 <= 0
 inactive_no_flow_10_9_0_0: flow_10_9_0_0 - 1000 edge_10_9_0_0 <= 0
 inactive_no_flow_10_13_0_0: flow_10_13_0_0 - 1000 edge_10_13_0_0 <= 0
 inactive_no_flow_10_15_0_0: flow_10_15_0_0 - 1000 edge_10_15_0_0 <= 0
 inactive_no_flow_10_16_0_0: flow_10_16_0_0 - 1000 edge_10_16_0_0 <= 0
 inactive_no_flow_10_17_0_0: flow_10_17_0_0 - 1000 edge_10_17_0_0 <= 0
 inactive_no_flow_10_18_0_0: flow_10_18_0_0 - 1000 edge_10_18_0_0 <= 0
 inactive_no_flow_10_19_0_0: flow_10_19_0_0 - 1000 edge_10_19_0_0 <= 0
 inactive_no_flow_10_21_0_0: flow_10_21_0_0 - 1000 edge_10_21_0_0 <= 0
 inactive_no_flow_10_22_0_0: flow_10_22_0_0 - 1000 edge_10_22_0_0 <= 0
 inactive_no_flow_10_24_0_0: flow_10_24_0_0 - 1000 edge_10_24_0_0 <= 0
 inactive_no_flow_10_25_0_0: flow_10_25_0_0 - 1000 edge_10_25_0_0 <= 0
 inactive_no_flow_10_27_0_0: flow_10_27_0_0 - 1000 edge_10_27_0_0 <= 0
 inactive_no_flow_13_9_0_0: flow_13_9_0_0 - 1000 edge_13_9_0_0 <= 0
 inactive_no_flow_13_10_0_0: flow_13_10_0_0 - 1000 edge_13_10_0_0 <= 0
 inactive_no_flow_13_15_0_0: flow_13_15_0_0 - 1000 edge_13_15_0_0 <= 0
 inactive_no_flow_13_16_0_0: flow_13_16_0_0 - 1000 edge_13_16_0_0 <= 0
 inactive_no_flow_13_17_0_0: flow_13_17_0_0 - 1000 edge_13_17_0_0 <= 0
 inactive_no_flow_13_18_0_0: flow_13_18_0_0 - 1000 edge_13_18_0_0 <= 0
 inactive_no_flow_15_10_0_0: flow_15_10_0_0 - 1000 edge_15_10_0_0 <= 0
 inactive_no_flow_15_13_0_0: flow_15_13_0_0 - 1000 edge_15_13_0_0 <= 0
 inactive_no_flow_15_16_0_0: flow_15_16_0_0 - 1000 edge_15_16_0_0 <= 0
 inactive_no_flow_15_17_0_0: flow_15_17_0_0 - 1000 edge_15_17_0_0 <= 0
 inactive_no_flow_16_15_0_0: flow_16_15_0_0 - 1000 edge_16_15_0_0 <= 0
 inactive_no_flow_17_18_0_0: flow_17_18_0_0 - 1000 edge_17_18_0_0 <= 0
 inactive_no_flow_17_19_0_0: flow_17_19_0_0 - 1000 edge_17_19_0_0 <= 0
 inactive_no_flow_18_13_0_0: flow_18_13_0_0 - 1000 edge_18_13_0_0 <= 0
 inactive_no_flow_18_16_0_0: flow_18_16_0_0 - 1000 edge_18_16_0_0 <= 0
 inactive_no_flow_18_17_0_0: flow_18_17_0_0 - 1000 edge_18_17_0_0 <= 0
 inactive_no_flow_18_19_0_0: flow_18_19_0_0 - 1000 edge_18_19_0_0 <= 0
 inactive_no_flow_18_21_0_0: flow_18_21_0_0 - 1000 edge_18_21_0_0 <= 0
 inactive_no_flow_18_22_0_0: flow_18_22_0_0 - 1000 edge_18_22_0_0 <= 0
 inactive_no_flow_18_23_0_0: flow_18_23_0_0 - 1000 edge_18_23_0_0 <= 0
 inactive_no_flow_18_24_0_0: flow_18_24_0_0 - 1000 edge_18_24_0_0 <= 0
 inactive_no_flow_19_17_0_0: flow_19_17_0_0 - 1000 edge_19_17_0_0 <= 0
 inactive_no_flow_19_18_0_0: flow_19_18_0_0 - 1000 edge_19_18_0_0 <= 0
 inactive_no_flow_19_21_0_0: flow_19_21_0_0 - 1000 edge_19_21_0_0 <= 0
 inactive_no_flow_21_18_0_0: flow_21_18_0_0 - 1000 edge_21_18_0_0 <= 0
 inactive_no_flow_21_19_0_0: flow_21_19_0_0 - 1000 edge_21_19_0_0 <= 0
 inactive_no_flow_21_22_0_0: flow_21_22_0_0 - 1000 edge_21_22_0_0 <= 0
 inactive_no_flow_21_23_0_0: flow_21_23_0_0 - 1000 edge_21_23_0_0 <= 0
 inactive_no_flow_21_24_0_0: flow_21_24_0_0 - 1000 edge_21_24_0_0 <= 0
 inactive_no_flow_21_25_0_0: flow_21_25_0_0 - 1000 edge_21_25_0_0 <= 0
 inactive_no_flow_22_1_0_0: flow_22_1_0_0 - 1000 edge_22_1_0_0 <= 0
 inactive_no_flow_22_2_0_0: flow_22_2_0_0 - 1000 edge_22_2_0_0 <= 0
 inactive_no_flow_22_3_0_0: flow_22_3_0_0 - 1000 edge_22_3_0_0 <= 0
 inactive_no_flow_22_5_0_0: flow_22_5_0_0 - 1000 edge_22_5_0_0 <= 0
 inactive_no_flow_22_6_0_0: flow_22_6_0_0 - 1000 edge_22_6_0_0 <= 0
 inactive_no_flow_22_7_0_0: flow_22_7_0_0 - 1000 edge_22_7_0_0 <= 0
 inactive_no_flow_22_8_0_0: flow_22_8_0_0 - 1000 edge_22_8_0_0 <= 0
 inactive_no_flow_22_9_0_0: flow_22_9_0_0 - 1000 edge_22_9_0_0 <= 0
 inactive_no_flow_22_10_0_0: flow_22_10_0_0 - 1000 edge_22_10_0_0 <= 0
 inactive_no_flow_22_13_0_0: flow_22_13_0_0 - 1000 edge_22_13_0_0 <= 0
 inactive_no_flow_22_15_0_0: flow_22_15_0_0 - 1000 edge_22_15_0_0 <= 0
 inactive_no_flow_22_16_0_0: flow_22_16_0_0 - 1000 edge_22_16_0_0 <= 0
 inactive_no_flow_22_17_0_0: flow_22_17_0_0 - 1000 edge_22_17_0_0 <= 0
 inactive_no_flow_22_18_0_0: flow_22_18_0_0 - 1000 edge_22_18_0_0 <= 0
 inactive_no_flow_22_19_0_0: flow_22_19_0_0 - 1000 edge_22_19_0_0 <= 0
 inactive_no_flow_22_21_0_0: flow_22_21_0_0 - 1000 edge_22_21_0_0 <= 0
 inactive_no_flow_22_23_0_0: flow_22_23_0_0 - 1000 edge_22_23_0_0 <= 0
 inactive_no_flow_22_24_0_0: flow_22_24_0_0 - 1000 edge_22_24_0_0 <= 0
 inactive_no_flow_22_25_0_0: flow_22_25_0_0 - 1000 edge_22_25_0_0 <= 0
 inactive_no_flow_22_26_0_0: flow_22_26_0_0 - 1000 edge_22_26_0_0 <= 0
 inactive_no_flow_22_27_0_0: flow_22_27_0_0 - 1000 edge_22_27_0_0 <= 0
 inactive_no_flow_23_21_0_0: flow_23_21_0_0 - 1000 edge_23_21_0_0 <= 0
 inactive_no_flow_23_22_0_0: flow_23_22_0_0 - 1000 edge_23_22_0_0 <= 0
 inactive_no_flow_23_24_0_0: flow_23_24_0_0 - 1000 edge_23_24_0_0 <= 0
 inactive_no_flow_23_25_0_0: flow_23_25_0_0 - 1000 edge_23_25_0_0 <= 0
 inactive_no_flow_23_26_0_0: flow_23_26_0_0 - 1000 edge_23_26_0_0 <= 0
 inactive_no_flow_24_3_0_0: flow_24_3_0_0 - 1000 edge_24_3_0_0 <= 0
 inactive_no_flow_24_13_0_0: flow_24_13_0_0 - 1000 edge_24_13_0_0 <= 0
 inactive_no_flow_24_19_0_0: flow_24_19_0_0 - 1000 edge_24_19_0_0 <= 0
 inactive_no_flow_24_21_0_0: flow_24_21_0_0 - 1000 edge_24_21_0_0 <= 0
 inactive_no_flow_24_22_0_0: flow_24_22_0_0 - 1000 edge_24_22_0_0 <= 0
 inactive_no_flow_24_23_0_0: flow_24_23_0_0 - 1000 edge_24_23_0_0 <= 0
 inactive_no_flow_24_25_0_0: flow_24_25_0_0 - 1000 edge_24_25_0_0 <= 0
 inactive_no_flow_24_26_0_0: flow_24_26_0_0 - 1000 edge_24_26_0_0 <= 0
 inactive_no_flow_24_27_0_0: flow_24_27_0_0 - 1000 edge_24_27_0_0 <= 0
 inactive_no_flow_25_23_0_0: flow_25_23_0_0 - 1000 edge_25_23_0_0 <= 0
 inactive_no_flow_25_24_0_0: flow_25_24_0_0 - 1000 edge_25_24_0_0 <= 0
 inactive_no_flow_25_26_0_0: flow_25_26_0_0 - 1000 edge_25_26_0_0 <= 0
 inactive_no_flow_26_23_0_0: flow_26_23_0_0 - 1000 edge_26_23_0_0 <= 0
 inactive_no_flow_26_25_0_0: flow_26_25_0_0 - 1000 edge_26_25_0_0 <= 0
 inactive_no_flow_26_27_0_0: flow_26_27_0_0 - 1000 edge_26_27_0_0 <= 0
 inactive_no_flow_27_26_0_0: flow_27_26_0_0 - 1000 edge_27_26_0_0 <= 0
Bounds
Binaries
 edge_0_1_0_0 edge_0_2_0_0 edge_0_3_0_0 edge_0_5_0_0 edge_0_6_0_0
 edge_0_8_0_0 edge_1_2_0_0 edge_1_3_0_0 edge_1_5_0_0 edge_1_6_0_0
 edge_1_7_0_0 edge_1_8_0_0 edge_1_9_0_0 edge_1_10_0_0 edge_1_15_0_0
 edge_1_16_0_0 edge_1_22_0_0 edge_1_27_0_0 edge_2_1_0_0 edge_2_3_0_0
 edge_2_5_0_0 edge_2_6_0_0 edge_2_7_0_0 edge_2_8_0_0 edge_2_10_0_0
 edge_3_1_0_0 edge_3_2_0_0 edge_3_5_0_0 edge_3_6_0_0 edge_3_7_0_0
 edge_3_8_0_0 edge_3_9_0_0 edge_3_10_0_0 edge_3_13_0_0 edge_3_15_0_0
 edge_3_16_0_0 edge_3_17_0_0 edge_3_18_0_0 edge_3_19_0_0 edge_3_21_0_0
 edge_3_22_0_0 edge_3_23_0_0 edge_3_24_0_0 edge_3_25_0_0 edge_3_26_0_0
 edge_3_27_0_0 edge_5_1_0_0 edge_5_2_0_0 edge_5_3_0_0 edge_5_6_0_0
 edge_5_7_0_0 edge_5_8_0_0 edge_6_1_0_0 edge_6_2_0_0 edge_6_3_0_0
 edge_6_5_0_0 edge_6_7_0_0 edge_6_8_0_0 edge_6_9_0_0 edge_6_10_0_0
 edge_6_13_0_0 edge_6_15_0_0 edge_6_16_0_0 edge_6_17_0_0 edge_6_18_0_0
 edge_6_19_0_0 edge_6_22_0_0 edge_6_24_0_0 edge_6_25_0_0 edge_6_26_0_0
 edge_6_27_0_0 edge_7_1_0_0 edge_7_2_0_0 edge_7_5_0_0 edge_7_6_0_0
 edge_7_8_0_0 edge_7_9_0_0 edge_7_10_0_0 edge_7_15_0_0 edge_8_1_0_0
 edge_8_2_0_0 edge_8_3_0_0 edge_8_5_0_0 edge_8_6_0_0 edge_8_7_0_0
 edge_8_9_0_0 edge_8_10_0_0 edge_8_13_0_0 edge_8_15_0_0 edge_8_16_0_0
 edge_8_17_0_0 edge_8_18_0_0 edge_8_19_0_0 edge_8_21_0_0 edge_8_22_0_0
 edge_8_23_0_0 edge_8_24_0_0 edge_8_25_0_0 edge_8_26_0_0 edge_8_27_0_0
 edge_9_7_0_0 edge_9_13_0_0 edge_10_1_0_0 edge_10_2_0_0 edge_10_3_0_0
 edge_10_5_0_0 edge_10_6_0_0 edge_10_7_0_0 edge_10_8_0_0 edge_10_9_0_0
 edge_10_13_0_0 edge_10_15_0_0 edge_10_16_0_0 edge_10_17_0_0 edge_10_18_0_0
 edge_10_19_0_0 edge_10_21_0_0 edge_10_22_0_0 edge_10_24_0_0 edge_10_25_0_0
 edge_10_27_0_0 edge_13_9_0_0 edge_13_10_0_0 edge_13_15_0_0 edge_13_16_0_0
 edge_13_17_0_0 edge_13_18_0_0 edge_15_10_0_0 edge_15_13_0_0 edge_15_16_0_0
 edge_15_17_0_0 edge_16_15_0_0 edge_17_18_0_0 edge_17_19_0_0 edge_18_13_0_0
 edge_18_16_0_0 edge_18_17_0_0 edge_18_19_0_0 edge_18_21_0_0 edge_18_22_0_0
 edge_18_23_0_0 edge_18_24_0_0 edge_19_17_0_0 edge_19_18_0_0 edge_19_21_0_0
 edge_21_18_0_0 edge_21_19_0_0 edge_21_22_0_0 edge_21_23_0_0 edge_21_24_0_0
 edge_21_25_0_0 edge_22_1_0_0 edge_22_2_0_0 edge_22_3_0_0 edge_22_5_0_0
 edge_22_6_0_0 edge_22_7_0_0 edge_22_8_0_0 edge_22_9_0_0 edge_22_10_0_0
 edge_22_13_0_0 edge_22_15_0_0 edge_22_16_0_0 edge_22_17_0_0 edge_22_18_0_0
 edge_22_19_0_0 edge_22_21_0_0 edge_22_23_0_0 edge_22_24_0_0 edge_22_25_0_0
 edge_22_26_0_0 edge_22_27_0_0 edge_23_21_0_0 edge_23_22_0_0 edge_23_24_0_0
 edge_23_25_0_0 edge_23_26_0_0 edge_24_3_0_0 edge_24_13_0_0 edge_24_19_0_0
 edge_24_21_0_0 edge_24_22_0_0 edge_24_23_0_0 edge_24_25_0_0 edge_24_26_0_0
 edge_24_27_0_0 edge_25_23_0_0 edge_25_24_0_0 edge_25_26_0_0 edge_26_23_0_0
 edge_26_25_0_0 edge_26_27_0_0 edge_27_26_0_0
End
